Instance: E072-04f.dat
Class:  1
   71 --- number of customers (no depot)
    4 --- number of vehicles
   71 --- number of items
Capacity - height - width of vehicles
 30000     40     20
Node - x - y - demand
    0     0.0     0.0     0.0
    1   -12.0    -6.0  7063.0
    2   -15.0    -5.0    51.0
    3    -1.0   -18.0    23.0
    4     2.0   -21.0  3074.0
    5    -1.0   -17.0   349.0
    6    -9.0   -12.0  1047.0
    7     2.0   -22.0   698.0
    8     1.0   -21.0  3001.0
    9     7.0   -25.0    31.0
   10    -7.0   -17.0  1135.0
   11   -11.0    -5.0 21611.0
   12   -14.0    -9.0    57.0
   13   -14.0    -8.0    51.0
   14   -11.0    -2.0   551.0
   15   -14.0    -5.0   179.0
   16   -15.0    -9.0     6.0
   17   -15.0    -8.0   528.0
   18    -9.0    -6.0  2832.0
   19   -14.0    -4.0  1514.0
   20     3.0     6.0   889.0
   21     5.0     9.0  2554.0
   22     5.0    10.0  1215.0
   23     2.0     8.0  1810.0
   24     1.0     9.0  3050.0
   25     1.0    10.0     4.0
   26     2.0     9.0  1563.0
   27     6.0    14.0   741.0
   28     5.0    12.0  1532.0
   29     3.0     7.0   709.0
   30     4.0     8.0  1022.0
   31    -6.0     1.0   883.0
   32    -6.0     2.0  1689.0
   33    -8.0    -2.0 10235.0
   34    -7.0     2.0    29.0
   35    -7.0    -3.0  2894.0
   36    -7.0    -2.0   450.0
   37   -20.0    12.0   411.0
   38   -20.0    13.0   207.0
   39   -12.0    10.0   496.0
   40   -20.0    15.0  1021.0
   41    -6.0     8.0   117.0
   42     2.0    21.0    46.0
   43     2.0    22.0     8.0
   44     1.0    21.0    18.0
   45    -1.0    24.0   561.0
   46     1.0    22.0  1877.0
   47    -2.0    20.0  3542.0
   48    -2.0    21.0   801.0
   49    -4.0    18.0   967.0
   50    -4.0    19.0    62.0
   51    -5.0    18.0  1366.0
   52    -5.0    26.0   230.0
   53     1.0    23.0     4.0
   54    -6.0     5.0    12.0
   55    -6.0     6.0   145.0
   56    -9.0     6.0  7149.0
   57    -9.0     7.0  2250.0
   58   -12.0     5.0   383.0
   59   -12.0     6.0   134.0
   60   -11.0     3.0  1947.0
   61   -11.0     4.0   182.0
   62   -14.0     4.0  3934.0
   63   -14.0     5.0   468.0
   64   -15.0     4.0    18.0
   65   -15.0     5.0   133.0
   66   -16.0     7.0  2340.0
   67   -16.0     8.0   754.0
   68   -15.0    10.0  1264.0
   69   -20.0    10.0   806.0
   70    -5.0    19.0  3665.0
   71    -9.0   -11.0  2452.0
Node - number of items - h - w for each item
    0   0
    1   1    1    1
    2   1    1    1
    3   1    1    1
    4   1    1    1
    5   1    1    1
    6   1    1    1
    7   1    1    1
    8   1    1    1
    9   1    1    1
   10   1    1    1
   11   1    1    1
   12   1    1    1
   13   1    1    1
   14   1    1    1
   15   1    1    1
   16   1    1    1
   17   1    1    1
   18   1    1    1
   19   1    1    1
   20   1    1    1
   21   1    1    1
   22   1    1    1
   23   1    1    1
   24   1    1    1
   25   1    1    1
   26   1    1    1
   27   1    1    1
   28   1    1    1
   29   1    1    1
   30   1    1    1
   31   1    1    1
   32   1    1    1
   33   1    1    1
   34   1    1    1
   35   1    1    1
   36   1    1    1
   37   1    1    1
   38   1    1    1
   39   1    1    1
   40   1    1    1
   41   1    1    1
   42   1    1    1
   43   1    1    1
   44   1    1    1
   45   1    1    1
   46   1    1    1
   47   1    1    1
   48   1    1    1
   49   1    1    1
   50   1    1    1
   51   1    1    1
   52   1    1    1
   53   1    1    1
   54   1    1    1
   55   1    1    1
   56   1    1    1
   57   1    1    1
   58   1    1    1
   59   1    1    1
   60   1    1    1
   61   1    1    1
   62   1    1    1
   63   1    1    1
   64   1    1    1
   65   1    1    1
   66   1    1    1
   67   1    1    1
   68   1    1    1
   69   1    1    1
   70   1    1    1
   71   1    1    1
